title "thiophene6_slr"
start thiophene6_slr

memory stack 800 mb heap 600 mb total 3000 mb

geometry units angstrom print xyz autosym
C	-0.01727773	0.72280993	0.00000000
S	-1.52162564	1.59723917	0.00000000
C	-0.71398225	3.17887151	0.00000000
C	0.68303590	3.00261231	0.00000000
C	1.02638126	1.60365648	0.00000000
C	0.71398225	-3.17887151	0.00000000
C	-0.68303590	-3.00261231	0.00000000
C	-1.02638126	-1.60365648	0.00000000
C	0.01727773	-0.72280993	0.00000000
S	1.52162564	-1.59723917	0.00000000
H	-2.04897273	-1.25406813	0.00000000
C	3.15746942	3.56597224	0.00000000
C	1.82101033	3.94071321	0.00000000
S	1.74316814	5.69613321	0.00000000
C	3.46157524	5.86312674	0.00000000
C	4.07860630	4.64368283	0.00000000
H	3.49307014	2.53786970	0.00000000
C	-1.67051863	4.28406273	0.00000000
C	-3.05267322	4.13335354	0.00000000
C	-3.78371565	5.34569657	0.00000000
C	-2.97385037	6.44764978	0.00000000
S	-1.30416097	6.00644146	0.00000000
H	-3.54331145	3.16727434	0.00000000
H	-4.86718122	5.39278239	0.00000000
H	-3.24959108	7.49364681	0.00000000
C	2.97385037	-6.44764978	0.00000000
S	1.30416097	-6.00644146	0.00000000
C	1.67051863	-4.28406273	0.00000000
C	3.05267322	-4.13335354	0.00000000
C	3.78371565	-5.34569657	0.00000000
H	3.54331145	-3.16727434	0.00000000
C	-3.46157524	-5.86312674	0.00000000
C	-4.07860630	-4.64368283	0.00000000
C	-3.15746942	-3.56597224	0.00000000
C	-1.82101033	-3.94071321	0.00000000
S	-1.74316814	-5.69613321	0.00000000
H	-3.90469999	-6.84988617	0.00000000
H	-5.15517885	-4.51195318	0.00000000
H	-3.49307014	-2.53786970	0.00000000
H	5.15517885	4.51195318	0.00000000
H	3.90469999	6.84988617	0.00000000
H	2.04897273	1.25406813	0.00000000
H	4.86718122	-5.39278239	0.00000000
H	3.24959108	-7.49364681	0.00000000
end

basis
  * library 6-31g*
END

charge 0

dft
  mult 1
  grid xfine
  direct
  xc b3lyp
  convergence energy 1e-7 
  vectors ../../thiophene6_opt.movecs
  iterations 300
end

tddft
  cis
  #algorithm 1
  notriplet
  thresh 1.0e-4
  nroots 15
end

slr
  ctol 0.05
  lambda 0.01
  ephoton 2.9239 # eV, center of band of states
  delt_eph 2.8 # eV, width of the band
  do_scan
end

task slr energy

